MDIO.lp
/* Objective function */
min: 3 x1_2 + 3 x2_3 + 3 x2_9 + 4 x3_4 + 12 x4_5 + 2 x4_13 + 4 x5_6 + 4 x6_7 + 10 x7_1 + 2 x8_7 + 4 x8_10 + 6 x9_8 + 2 x10_9 + 2 x10_11 + 4 x11_3 + 4 x11_6 + 3 x12_11 + 2 x12_14 + 3 x13_12 + 3 x14_5 + 5 x14_13;

/* restrições */

/*Cada arco deve ser percorrido, pelo menos, uma vez*/

x1_2 >= 1;
x2_3 >= 1;
x2_9 >= 1;
x3_4 >= 1;
x4_5 >= 1;
x4_13 >= 1;
x5_6 >= 1;
x6_7 >= 1;
x7_1 >= 1;
x8_7 >= 1;
x8_10 >= 1;
x9_8 >= 1;
x10_9 >= 1;
x10_11 >= 1;
x11_3 >= 1;
x11_6 >= 1;
x12_11 >= 1;
x12_14 >= 1;
x13_12 >= 1;
x14_5 >= 1;
x14_13 >= 1;

/*O número de arcos que entram e saem num nodo deve ser igual*/

x1_2 = x7_1;
x2_9 + x2_3 = x1_2;
x3_4 = x2_3 + x11_3;
x4_13 + x4_5 = x3_4;
x5_6 = x4_5 + x14_5;
x6_7 = x5_6 + x11_6;
x7_1 = x6_7 + x8_7;
x8_10 + x8_7 = x9_8;
x9_8 = x2_9 + x10_9;
x10_9 + x10_11 = x8_10;
x11_3 + x11_6 = x10_11 + x12_11;
x12_11 + x12_14 = x13_12;
x13_12 = x4_13 + x14_13;
x14_5 + x14_13 = x12_14;

/* Variable bounds */