MDIO.txt
14
21
1 2 3 1000
2 3 3 1000
2 9 3 1000
3 4 4 1000
4 5 12 1000
4 13 2 1000
5 6 4 1000
6 7 4 1000
7 1 10 1000
8 7 2 1000
8 10 4 1000
9 8 6 1000
10 9 2 1000
10 11 2 1000
11 3 4 1000
11 6 4 1000
12 11 3 1000
12 14 2 1000
13 12 3 1000
14 5 3 1000
14 13 5 1000
0
-1
1
-1
1
1
1
-1
1
-1
0
-1
1
-1
